; benchmark generated from python API
(set-info :status unknown)
(declare-datatypes ((IntState 0)) (((Mk1 (val1 Int)) (Mk2 (val2 Int)))))
 (declare-fun c_main_~j~6 () Int)
(declare-fun c_main_~k~6 () Int)
(declare-fun c_main_~i~6 () Int)
(assert
 (let (($x29 (exists ((v_nnf_30_st IntState) (val!17 Int) )(let ((?x56 (val2 v_nnf_30_st)))
 (let (($x27 (<= ?x56 3)))
 (let (($x19 (and (<= (+ ?x56 1) c_main_~k~6) $x27 (<= c_main_~j~6 (+ (* 2 ?x56) 1)))))
 (let (($x52 (not (= v_nnf_30_st (Mk1 val!17)))))
 (and $x52 $x19))))))
 ))
 (let (($x126 (<= c_main_~i~6 2)))
 (let (($x50 (<= c_main_~j~6 (+ (* 2 c_main_~i~6) 1))))
 (let (($x134 (<= c_main_~i~6 3)))
 (let ((?x78 (* 2 c_main_~i~6)))
 (let (($x122 (<= c_main_~j~6 ?x78)))
 (let (($x104 (exists ((v_nnf_30 Int) )(let (($x125 (<= v_nnf_30 3)))
 (and (<= (+ v_nnf_30 1) c_main_~k~6) $x125 (<= c_main_~j~6 (+ (* 2 v_nnf_30) 1)))))
 ))
 (let (($x86 (<= c_main_~i~6 1)))
 (and (and $x122 $x134 $x86 $x126 $x104) (not (and $x122 $x134 $x50 $x126 $x29))))))))))))
(check-sat)
